SAT
-97 87 99 48 89 -61 69 93 9 -8 -23 -63 1 -75 -59 43 92 52 22 -55 -79 -31 36 20 13 84 21 49 -29 38 65 78 27 -58 -71 98 -28 50 85 56 -67 -34 -45 -18 -26 77 53 -40 -35 57 42 -82 -5 25 -100 72 -54 24 -33 -17 -10 11 80 46 -7 32 37 -96 -51 -44 -60 70 14 86 -83 81 95 88 -30 39 94 -19 47 2 -12 -4 -62 -76 -90 -64 -3 -6 -74 -41 66 -16 -15 -68 73 -91 0
